p cnf 20 20
17 -12 -6 0
-10 18 9 0
-4 -13 2 0
1 -15 -19 0
14 8 -6 0
-1 19 -11 0
7 -11 -20 0
-16 -4 -3 0
-12 -19 7 0
-9 -2 13 0
1 7 6 0
6 -8 -11 0
16 7 -6 0
20 -13 11 0
-8 -20 9 0
-7 -12 13 0
10 -6 -7 0
-7 20 16 0
15 5 16 0
-10 4 3 0
